Nb of jobs, Nb of Machines, Time seed, Machine seed, Upper bound, Lower bound
10,5,-1,-1,-1,-1
Times
36,92,37,27,51
45,70,46,31,41
22,51,29,82,78
90,23,44,78,36
54,30,35,42,67
60,62,69,60,81
93,24,30,70,39
88,8,78,73,41
49,15,4,36,82
63,44,93,81,31
Machines
3,4,5,2,1
2,4,3,1,5
3,4,1,2,5
1,2,3,5,4
1,3,2,5,4
4,3,5,2,1
5,1,4,3,2
5,1,3,4,2
3,5,2,1,4
5,2,1,3,4
